
Gurobi 11.0.1 (win64) logging started Thu Mar 21 01:02:31 2024

Set parameter LogFile to value "C:\Projetos\Job_Rotation_Algorithms\Outputs\GurobiLogs\gurobi_log-output-20_hes-c126-CostaMirallesModel-NoExtraConstraint-2.log"
Gurobi Optimizer version 11.0.1 build v11.0.1rc0 (win64 - Windows 10.0 (19045.2))

CPU model: 11th Gen Intel(R) Core(TM) i7-1165G7 @ 2.80GHz, instruction set [SSE2|AVX|AVX2|AVX512]
Thread count: 4 physical cores, 8 logical processors, using up to 1 threads

WLS license 901039 - registered to Bitka Analytics
Optimize a model with 472 rows, 871 columns and 7123 nonzeros
Model fingerprint: 0x4c44c61f
Variable types: 2 continuous, 869 integer (869 binary)
Coefficient statistics:
  Matrix range     [1e+00, 1e+02]
  Objective range  [1e+00, 1e+00]
  Bounds range     [1e+00, 3e+02]
  RHS range        [1e+00, 3e+02]
Presolve removed 136 rows and 102 columns
Presolve time: 0.05s
Presolved: 336 rows, 769 columns, 4656 nonzeros
Variable types: 0 continuous, 769 integer (768 binary)

Root relaxation: objective 5.500000e+01, 366 iterations, 0.00 seconds (0.00 work units)

    Nodes    |    Current Node    |     Objective Bounds      |     Work
 Expl Unexpl |  Obj  Depth IntInf | Incumbent    BestBd   Gap | It/Node Time

     0     0   55.00000    0   15          -   55.00000      -     -    0s
     0     0   55.00000    0  165          -   55.00000      -     -    0s
     0     0   55.00000    0  133          -   55.00000      -     -    0s
     0     0   55.00000    0   29          -   55.00000      -     -    0s
     0     0   55.00000    0   88          -   55.00000      -     -    0s
     0     0   55.00000    0   29          -   55.00000      -     -    0s
     0     0   55.00000    0   28          -   55.00000      -     -    0s
     0     2   55.00000    0   19          -   55.00000      -     -    0s
H  849   125                      39.0000000   55.00000  41.0%  87.1    2s
H  986   140                      42.0000000   55.00000  31.0%  87.1    2s
H 1449   176                      43.0000000   55.00000  27.9%  93.2    4s
  1784   114   52.93191   15  118   43.00000   54.00000  25.6%  92.4    5s

Cutting planes:
  Gomory: 4
  Cover: 1026
  Implied bound: 37
  Clique: 114
  MIR: 42
  StrongCG: 13
  GUB cover: 21
  Inf proof: 5
  Zero half: 5
  RLT: 9
  BQP: 1

Explored 1996 nodes (177462 simplex iterations) in 5.65 seconds (5.60 work units)
Thread count was 1 (of 8 available processors)

Solution count 3: 43 42 39 

Optimal solution found (tolerance 1.00e-03)
Best objective 4.300000000000e+01, best bound 4.300000000000e+01, gap 0.0000%
